\ LP format - for model browsing. Use MPS format to capture full model detail.
Minimize
  14.66076571675237 x0_0 + 13.38424508307116 x1_0 + 14.66076571675237 x1_1
   + 6.333185307179586 x2_0 + 10.32606938945284 x2_1
   + 14.66076571675237 x2_2 + 7.383185307179586 x3_0
   + 6.333185307179586 x3_1 + 13.38424508307116 x3_2
   + 14.66076571675237 x3_3 + 10.38318530717959 x4_0
   + 9.333185307179587 x4_1 + 6.333185307179586 x4_2
   + 10.32606938945284 x4_3 + 14.66076571675237 x4_4
   + 11.43318530717959 x5_0 + 10.38318530717959 x5_1
   + 7.383185307179586 x5_2 + 6.333185307179586 x5_3
   + 13.38424508307116 x5_4 + 14.66076571675237 x5_5
   + 14.43318530717958 x6_0 + 13.38318530717959 x6_1
   + 10.38318530717959 x6_2 + 9.333185307179587 x6_3
   + 6.333185307179586 x6_4 + 10.32606938945284 x6_5
   + 14.66076571675237 x6_6 + 15.48318530717959 x7_0
   + 14.43318530717958 x7_1 + 11.43318530717959 x7_2
   + 10.38318530717959 x7_3 + 7.383185307179586 x7_4
   + 6.333185307179586 x7_5 + 13.38424508307116 x7_6
   + 14.66076571675237 x7_7 + 18.48318530717959 x8_0
   + 17.43318530717958 x8_1 + 14.43318530717958 x8_2
   + 13.38318530717959 x8_3 + 10.38318530717959 x8_4
   + 9.333185307179587 x8_5 + 6.333185307179586 x8_6
   + 10.32606938945284 x8_7 + 14.66076571675237 x8_8
   + 19.53318530717959 x9_0 + 18.48318530717959 x9_1
   + 15.48318530717959 x9_2 + 14.43318530717958 x9_3
   + 11.43318530717959 x9_4 + 10.38318530717959 x9_5
   + 7.383185307179586 x9_6 + 6.333185307179586 x9_7
   + 13.38424508307116 x9_8 + 14.66076571675237 x9_9
Subject To
 deg2_0: x0_0 + x1_0 + x2_0 + x3_0 + x4_0 + x5_0 + x6_0 + x7_0 + x8_0
   + x9_0 = 2
 deg2_1: x1_0 + x1_1 + x2_1 + x3_1 + x4_1 + x5_1 + x6_1 + x7_1 + x8_1
   + x9_1 = 2
 deg2_2: x2_0 + x2_1 + x2_2 + x3_2 + x4_2 + x5_2 + x6_2 + x7_2 + x8_2
   + x9_2 = 2
 deg2_3: x3_0 + x3_1 + x3_2 + x3_3 + x4_3 + x5_3 + x6_3 + x7_3 + x8_3
   + x9_3 = 2
 deg2_4: x4_0 + x4_1 + x4_2 + x4_3 + x4_4 + x5_4 + x6_4 + x7_4 + x8_4
   + x9_4 = 2
 deg2_5: x5_0 + x5_1 + x5_2 + x5_3 + x5_4 + x5_5 + x6_5 + x7_5 + x8_5
   + x9_5 = 2
 deg2_6: x6_0 + x6_1 + x6_2 + x6_3 + x6_4 + x6_5 + x6_6 + x7_6 + x8_6
   + x9_6 = 2
 deg2_7: x7_0 + x7_1 + x7_2 + x7_3 + x7_4 + x7_5 + x7_6 + x7_7 + x8_7
   + x9_7 = 2
 deg2_8: x8_0 + x8_1 + x8_2 + x8_3 + x8_4 + x8_5 + x8_6 + x8_7 + x8_8
   + x9_8 = 2
 deg2_9: x9_0 + x9_1 + x9_2 + x9_3 + x9_4 + x9_5 + x9_6 + x9_7 + x9_8
   + x9_9 = 2
 TurnCon0: x1_0 = 0
 TurnCon1: x2_1 = 0
 TurnCon2: x3_2 = 0
 TurnCon3: x4_3 = 0
 TurnCon4: x5_4 = 0
 TurnCon5: x6_5 = 0
 TurnCon6: x7_6 = 0
 TurnCon7: x8_7 = 0
 TurnCon8: x9_8 = 0
Bounds
 x0_0 = 0
 x1_1 = 0
 x2_2 = 0
 x3_3 = 0
 x4_4 = 0
 x5_5 = 0
 x6_6 = 0
 x7_7 = 0
 x8_8 = 0
 x9_9 = 0
Binaries
 x0_0 x1_0 x1_1 x2_0 x2_1 x2_2 x3_0 x3_1 x3_2 x3_3 x4_0 x4_1 x4_2 x4_3 x4_4
 x5_0 x5_1 x5_2 x5_3 x5_4 x5_5 x6_0 x6_1 x6_2 x6_3 x6_4 x6_5 x6_6 x7_0 x7_1
 x7_2 x7_3 x7_4 x7_5 x7_6 x7_7 x8_0 x8_1 x8_2 x8_3 x8_4 x8_5 x8_6 x8_7 x8_8
 x9_0 x9_1 x9_2 x9_3 x9_4 x9_5 x9_6 x9_7 x9_8 x9_9
End
